c *********************************
c * Circuit generated by BenCGen
c *
c * Decoder_3_8
c *
c * Ports with 1 gate(s): 4
c * Ports with 2 gate(s): 1
c * Ports with 3 gate(s): 8
c * Total gates: 13
c *********************************
p cnf 16 43
1 13 0
-1 -13 0
1 -12 0
13 -12 0
-1 -13 12 0
1 14 0
-1 -14 0
2 15 0
-2 -15 0
3 16 0
-3 -16 0
14 -4 0
15 -4 0
16 -4 0
-14 -15 -16 4 0
1 -5 0
15 -5 0
16 -5 0
-1 -15 -16 5 0
14 -6 0
2 -6 0
16 -6 0
-14 -2 -16 6 0
1 -7 0
2 -7 0
16 -7 0
-1 -2 -16 7 0
14 -8 0
15 -8 0
3 -8 0
-14 -15 -3 8 0
1 -9 0
15 -9 0
3 -9 0
-1 -15 -3 9 0
14 -10 0
2 -10 0
3 -10 0
-14 -2 -3 10 0
1 -11 0
2 -11 0
3 -11 0
-1 -2 -3 11 0
